NAME: tsp25_24
COMMENT: 25-tsp problem (Padberg/Rinaldi)
TYPE: TSP
DIMENSION: 25
EDGE_WEIGHT_TYPE : EUC_2D
NODE_COORD_SECTION
1 36 10
2 3 25
3 37 36
4 38 31
5 0 17
6 5 31
7 3 26
8 32 21
9 34 31
10 27 14
11 22 8
12 35 4
13 16 5
14 36 6
15 8 11
16 17 28
17 27 5
18 10 32
19 12 32
20 27 16
21 38 4
22 39 32
23 8 19
24 24 15
25 28 1
